n_res = 4;
rcap = [11, 26, 38, 53];
rtype = [1, 1, 2, 2];
n_tasks = 16;
modes = [ {1}, {2}, {3}, {4}, {5}, {6}, {7}, {8}, {9}, {10}, {11}, {12}, {13}, {14}, {15}, {16} ];
succ = [ {4, 5, 9}, {6, 7, 16}, {10, 11, 13}, {8}, {6, 8, 11}, {12}, {13, 15}, {14, 16}, {10, 13}, {12, 15, 16}, {12, 15}, {14}, {14}, {}, {}, {} ];
n_opt = 16;
dur = [3, 6, 4, 7, 8, 5, 3, 10, 7, 1, 10, 10, 8, 6, 6, 7];
rreq = [|  0,  0,  0,  0,  4,  0,  0,  6,  0,  0,  0,  6,  5,  5,  3,  2
        |  6,  5,  5,  8,  0,  2,  7,  0,  8,  6, 10,  0,  0,  0,  0,  0
        |  0,  5,  0,  5,  0,  0,  0,  3,  3,  5,  0,  4,  0,  9,  0,  4
        |  6,  0,  8,  0,  9,  9,  1,  0,  0,  0,  9,  0,  5,  0,  6,  0 |];
